=obj=   423
    x1    1
    x3    1
    x4    1
    x6    1
    x7    1
    x8    1
   x10    1
   x11    1
   x13    1
   x17    1
   x20    1
   x23    1
   x25    1
   x26    1
   x28    1
   x32    1
   x33    1
   x35    1
   x36    1
   x37    1
   x39    1
   x40    1
   x41    1
   x42    1
   x43    1
   x45    1
   x46    1
   x47    1
   x50    1
   x51    1
   x52    1
   x55    1
   x56    1
   x57    1
   x59    1
   x62    1
   x63    1
   x64    1
   x66    1
   x67    1
   x68    1
   x69    1
   x71    1
   x72    1
   x76    1
   x80    1
   x82    1
   x83    1
   x85    1
   x86    1
   x87    1
   x88    1
   x89    1
   x90    1
   x92    1
   x94    1
   x95    1
   x96    1
   x98    1
   x99    1
  x100    1
  x102    1
  x103    1
  x104    1
  x106    1
  x107    1
  x110    1
  x111    1
  x112    1
  x114    1
  x117    1
  x119    1
  x120    1
  x121    1
  x123    1
  x124    1
  x126    1
  x127    1
  x130    1
  x131    1
  x133    1
  x137    1
  x141    1
  x142    1
  x143    1
  x144    1
  x145    1
  x150    1
  x152    1
  x155    1
  x157    1
  x160    1
  x162    1
  x163    1
  x164    1
  x165    1
  x167    1
  x168    1
  x170    1
  x171    1
  x177    1
  x178    1
  x179    1
  x181    1
  x182    1
  x183    1
  x186    1
  x187    1
  x188    1
  x190    1
  x193    1
  x194    1
  x201    1
  x202    1
  x203    1
  x204    1
  x205    1
  x212    1
  x215    1
  x217    1
  x219    1
  x228    1
  x229    1
  x232    1
  x234    1
  x235    1
  x238    1
  x240    1
  x243    1
  x245    1
  x248    1
  x251    1
  x252    1
  x254    1
  x257    1
  x258    1
  x260    1
  x261    1
  x265    1
  x268    1
  x270    1
  x271    1
  x273    1
  x279    1
  x280    1
  x285    1
  x287    1
  x289    1
  x290    1
  x292    1
  x293    1
  x300    1
  x304    1
  x306    1
  x308    1
  x309    1
  x312    1
  x315    1
  x316    1
  x317    1
  x318    1
  x320    1
  x322    1
  x326    1
  x333    1
  x336    1
  x338    1
  x340    1
  x341    1
  x343    1
  x344    1
  x347    1
  x351    1
  x356    1
  x357    1
  x358    1
  x359    1
  x366    1
  x370    1
  x373    1
  x374    1
  x375    1
  x376    1
  x377    1
  x380    1
  x382    1
  x384    1
  x387    1
  x389    1
  x391    1
  x393    1
  x397    1
  x400    1
  x404    1
  x405    1
  x413    1
  x417    1
  x420    1
  x425    1
  x426    1
  x427    1
  x428    1
  x430    1
  x431    1
  x432    1
  x433    1
  x437    1
  x438    1
  x439    1
  x441    1
  x442    1
  x444    1
  x451    1
  x452    1
  x453    1
  x454    1
  x457    1
  x461    1
  x462    1
  x463    1
  x465    1
  x468    1
  x470    1
  x472    1
  x476    1
  x477    1
  x478    1
  x481    1
  x484    1
  x486    1
  x490    1
  x492    1
  x494    1
  x500    1
  x501    1
  x502    1
  x511    1
  x513    1
  x517    1
  x519    1
  x520    1
  x521    1
  x524    1
  x535    1
  x548    1
  x549    1
  x553    1
  x554    1
  x564    1
  x565    1
  x567    1
  x568    1
  x571    1
  x575    1
  x577    1
  x583    1
  x584    1
  x588    1
  x593    1
  x597    1
  x600    1
  x603    1
  x611    1
  x612    1
  x614    1
  x624    1
  x632    1
  x640    1
  x647    1
  x648    1
  x650    1
  x653    1
  x662    1
  x663    1
  x665    1
  x668    1
  x670    1
  x671    1
  x672    1
  x677    1
  x680    1
  x684    1
  x685    1
  x686    1
  x687    1
  x689    1
  x692    1
  x698    1
  x704    1
  x706    1
  x710    1
  x712    1
  x713    1
  x716    1
  x722    1
  x724    1
  x727    1
  x729    1
  x730    1
  x733    1
  x737    1
  x739    1
  x740    1
  x746    1
  x747    1
  x748    1
  x755    1
  x758    1
  x766    1
  x768    1
  x769    1
  x771    1
  x779    1
  x782    1
  x786    1
  x792    1
  x799    1
  x812    1
  x813    1
  x814    1
  x817    1
  x825    1
  x827    1
  x839    1
  x854    1
  x874    1
  x882    1
  x886    1
  x891    1
  x897    1
  x904    1
  x907    1
  x913    1
  x914    1
  x924    1
  x925    1
  x928    1
  x933    1
  x937    1
  x939    1
  x942    1
  x946    1
  x959    1
  x962    1
  x965    1
  x968    1
  x972    1
  x973    1
  x976    1
  x979    1
  x983    1
  x986    1
  x994    1
  x996    1
  x998    1
 x1000    1
 x1002    1
 x1011    1
 x1012    1
 x1013    1
 x1021    1
 x1028    1
 x1041    1
 x1044    1
 x1048    1
 x1056    1
 x1057    1
 x1066    1
 x1078    1
 x1084    1
 x1090    1
 x1092    1
 x1097    1
 x1101    1
 x1113    1
 x1127    1
 x1131    1
 x1132    1
 x1133    1
 x1135    1
 x1137    1
 x1144    1
 x1155    1
 x1163    1
 x1164    1
 x1165    1
 x1166    1
 x1184    1
 x1185    1
 x1192    1
 x1201    1
 x1203    1
 x1221    1
 x1227    1
 x1229    1
 x1230    1
 x1234    1
 x1244    1
 x1245    1
 x1258    1
 x1259    1
 x1272    1
 x1274    1
 x1278    1
 x1288    1
 x1289    1
 x1292    1
 x1301    1
 x1304    1
 x1311    1
 x1314    1
 x1315    1
 x1324    1
 x1338    1
 x1341    1
 x1349    1
 x1350    1
 x1352    1
 x1362    1
 x1364    1
 x1365    1
 x1366    1
 x1367    1
